ssat_solver_solve2
#level: 2
Abc_NtkNodeNum(s->pNtk): 3076  , BDD limit: 10240
level 1: 20 element
Exist
existence_eliminate_scope
Abc_NtkIsBddLogic(pNtk): 0
Abc_NtkIsStrash(pNtk): 1
existence_eliminate_scope_aig
exist by BDD failed
Abc_NtkNodeNum(s->pNtk): 18532428  , BDD limit: 22238913
Build BDD success
level 0: 20 element
Random
c ssat solving in ABC
#var: 40
s SATISFIABLE
  > Upper bound = 1.000000e+00
  > Lower bound = 1.000000e+00
FINISHED CPU 2478.49 MEM 0 MAXMEM 3420148 STALE 0 MAXMEM_RSS 3297044
<time name="ALL">2478570</time>
real 2478.76
user 2874.41
sys 1021.69
